2722.54
74 74 5 74 74 5 5 77 5 74 5 5 5 5 77 5 74 74 74 74 5 5 74 77 5 5 74 42 58 5 5 5 42 5 5 42 74 5 42 5 42 42 5 42 81 5 5 74 5 42 42 77 36 77 5 5 5 5 5 5 81 5 81 77 81 77 5 74 42 81 81 5 74 77 5 5 42 81 77 5 5 74 5 5 5 77 81 74 42 42 87 74 5 77 74 5 5 81 74 5 
